c Result of efficient AIG-to-CNF conversion using package CNF
p cnf 320 1079
2 3 -5 0
2 3 4 -63 0
-2 -3 0
-2 -4 5 0
-2 5 63 0
-3 256 257 288 289 0
3 -289 0
3 -288 0
3 -256 0
3 -257 0
-4 258 259 290 291 0
4 -291 0
4 -290 0
4 -258 0
4 -259 0
-5 -47 49 0
-5 -6 -36 49 0
-5 6 36 49 0
5 -49 0
5 -6 36 47 0
5 6 -36 47 0
-6 7 22 23 24 0
6 -24 0
6 -7 0
6 -23 0
6 -22 0
-7 8 10 11 12 0
7 -12 0
7 -8 0
7 -11 0
7 -10 0
-8 279 310 311 9 0
8 -9 0
8 -311 0
8 -279 0
8 -310 0
-9 278 280 312 0
9 -278 0
9 -312 0
9 -280 0
-10 261 262 293 294 0
10 -294 0
10 -293 0
10 -261 0
10 -262 0
-11 281 282 313 314 0
11 -314 0
11 -313 0
11 -281 0
11 -282 0
-12 13 16 19 0
12 -13 0
12 -16 0
12 -19 0
-13 14 15 0
13 -14 0
13 -15 0
-14 265 297 0
14 -265 0
14 -297 0
-15 263 264 295 296 0
15 -296 0
15 -295 0
15 -263 0
15 -264 0
-16 17 18 0
16 -17 0
16 -18 0
-17 285 317 0
17 -285 0
17 -317 0
-18 284 316 0
18 -284 0
18 -316 0
-19 20 21 0
19 -20 0
19 -21 0
-20 273 274 305 306 0
20 -306 0
20 -305 0
20 -273 0
20 -274 0
-21 272 304 0
21 -272 0
21 -304 0
-22 276 277 308 309 0
22 -309 0
22 -308 0
22 -276 0
22 -277 0
-23 275 307 0
23 -275 0
23 -307 0
-24 25 31 32 0
24 -25 0
24 -31 0
24 -32 0
-25 26 29 0
25 -26 0
25 -29 0
-26 266 298 27 28 0
26 -266 0
26 -28 0
26 -27 0
26 -298 0
-27 268 300 0
27 -268 0
27 -300 0
-28 267 299 0
28 -267 0
28 -299 0
-29 271 303 30 0
29 -30 0
29 -303 0
29 -271 0
-30 269 270 301 302 0
30 -302 0
30 -301 0
30 -269 0
30 -270 0
-31 283 315 0
31 -283 0
31 -315 0
-32 33 34 0
32 -33 0
32 -34 0
-33 286 318 0
33 -286 0
33 -318 0
-34 256 -35 0
-34 257 35 0
34 -257 35 0
34 -256 -35 0
-35 287 319 0
35 -287 0
35 -319 0
-36 16 37 39 0
36 -16 0
36 -37 0
36 -39 0
-37 33 38 0
37 -33 0
37 -38 0
-38 288 -35 0
-38 289 35 0
38 -289 35 0
38 -288 -35 0
-39 40 41 0
39 -40 0
39 -41 0
-40 263 295 10 0
40 -10 0
40 -295 0
40 -263 0
-41 8 42 43 45 0
41 -45 0
41 -8 0
41 -43 0
41 -42 0
-42 11 23 0
42 -11 0
42 -23 0
-43 26 44 0
43 -26 0
43 -44 0
-44 264 296 14 0
44 -14 0
44 -296 0
44 -264 0
-45 19 29 46 0
45 -19 0
45 -29 0
45 -46 0
-46 22 31 0
46 -22 0
46 -31 0
-47 4 48 0
47 -4 0
47 -48 0
-48 260 292 0
48 -260 0
48 -292 0
49 50 -54 56 58 0
49 50 54 -56 58 0
-49 -58 0
-49 54 56 0
-49 -50 0
-49 -54 -56 0
-50 11 51 0
50 -11 0
50 -51 0
-51 10 52 0
51 -10 0
51 -52 0
-52 30 53 0
52 -30 0
52 -53 0
-53 271 303 21 0
53 -21 0
53 -303 0
53 -271 0
-54 18 55 0
54 -18 0
54 -55 0
-55 288 17 33 35 0
55 -288 0
55 -35 0
55 -33 0
55 -17 0
-56 18 57 0
56 -18 0
56 -57 0
-57 256 17 33 35 0
57 -256 0
57 -35 0
57 -33 0
57 -17 0
-58 26 31 59 60 0
58 -60 0
58 -26 0
58 -59 0
58 -31 0
-59 13 47 0
59 -13 0
59 -47 0
-60 23 61 0
60 -23 0
60 -61 0
-61 20 62 0
61 -20 0
61 -62 0
-62 8 22 0
62 -8 0
62 -22 0
-63 -64 207 222 0
-63 67 207 222 0
63 -222 0
63 -207 0
63 64 -67 0
-64 48 60 65 66 0
64 -66 0
64 -48 0
64 -65 0
64 -60 0
-65 15 50 0
65 -15 0
65 -50 0
-66 14 26 0
66 -14 0
66 -26 0
-67 31 68 160 0
-67 -31 68 104 0
67 -68 0
67 31 -160 0
67 -31 -104 0
68 -48 80 0
68 -69 80 0
-68 -80 0
-68 48 69 0
-69 20 42 70 71 0
69 -71 0
69 -20 0
69 -70 0
69 -42 0
-70 62 66 0
70 -62 0
70 -66 0
-71 15 51 72 0
-71 15 31 51 0
71 -15 0
71 -51 0
71 -31 -72 0
-72 -18 57 0
-72 18 73 0
72 18 -73 0
72 -18 -57 0
-73 17 74 0
-73 -17 77 0
73 -17 -77 0
73 17 -74 0
-74 33 75 0
-74 -33 76 0
74 -33 -76 0
74 33 -75 0
-75 263 -35 0
-75 264 35 0
75 -264 35 0
75 -263 -35 0
-76 261 -35 0
-76 262 35 0
76 -262 35 0
76 -261 -35 0
-77 33 78 0
-77 -33 79 0
77 -33 -79 0
77 33 -78 0
-78 259 -35 0
-78 260 35 0
78 -260 35 0
78 -259 -35 0
-79 257 -35 0
-79 258 35 0
79 -258 35 0
79 -257 -35 0
80 31 -81 0
80 -31 -96 0
-80 31 81 0
-80 -31 96 0
81 18 -82 0
81 -18 -89 0
-81 18 82 0
-81 -18 89 0
82 17 -86 0
82 -17 -83 0
-82 -17 83 0
-82 17 86 0
-83 33 84 0
-83 -33 85 0
83 -33 -85 0
83 33 -84 0
-84 307 -35 0
-84 308 35 0
84 -308 35 0
84 -307 -35 0
-85 305 -35 0
-85 306 35 0
85 -306 35 0
85 -305 -35 0
-86 33 87 0
-86 -33 88 0
86 -33 -88 0
86 33 -87 0
-87 311 -35 0
-87 312 35 0
87 -312 35 0
87 -311 -35 0
-88 309 -35 0
-88 310 35 0
88 -310 35 0
88 -309 -35 0
-89 17 90 0
-89 -17 93 0
89 -17 -93 0
89 17 -90 0
-90 33 91 0
-90 -33 92 0
90 -33 -92 0
90 33 -91 0
-91 303 -35 0
-91 304 35 0
91 -304 35 0
91 -303 -35 0
-92 301 -35 0
-92 302 35 0
92 -302 35 0
92 -301 -35 0
-93 33 94 0
-93 -33 95 0
93 -33 -95 0
93 33 -94 0
-94 299 -35 0
-94 300 35 0
94 -300 35 0
94 -299 -35 0
-95 297 -35 0
-95 298 35 0
95 -298 35 0
95 -297 -35 0
-96 -18 55 0
-96 18 97 0
96 18 -97 0
96 -18 -55 0
-97 17 98 0
-97 -17 101 0
97 -17 -101 0
97 17 -98 0
-98 33 99 0
-98 -33 100 0
98 -33 -100 0
98 33 -99 0
-99 295 -35 0
-99 296 35 0
99 -296 35 0
99 -295 -35 0
-100 293 -35 0
-100 294 35 0
100 -294 35 0
100 -293 -35 0
-101 33 102 0
-101 -33 103 0
101 -33 -103 0
101 33 -102 0
-102 291 -35 0
-102 292 35 0
102 -292 35 0
102 -291 -35 0
-103 289 -35 0
-103 290 35 0
103 -290 35 0
103 -289 -35 0
-104 -18 105 0
-104 18 133 144 0
104 18 -144 0
104 -18 -105 0
104 18 -133 0
-105 106 -121 -123 125 0
-105 106 121 123 125 0
105 -125 0
105 121 -123 0
105 -106 0
105 -121 123 0
-106 107 114 0
-106 -17 114 0
106 -114 0
106 17 -107 0
-107 108 112 0
107 -108 0
107 -112 0
-108 -33 111 0
-108 33 -109 -110 0
-108 33 109 110 0
108 -33 -111 0
108 33 109 -110 0
108 33 -109 110 0
-109 290 -35 0
-109 291 35 0
109 -291 35 0
109 -290 -35 0
-110 258 -35 0
-110 259 35 0
110 -259 35 0
110 -258 -35 0
-111 34 38 0
-111 -34 -38 0
111 -34 38 0
111 34 -38 0
112 -33 -113 0
112 33 -79 103 0
112 33 79 -103 0
-112 -33 113 0
-112 33 79 103 0
-112 33 -79 -103 0
113 256 -288 35 0
113 -256 288 35 0
-113 -35 0
-113 256 288 0
-113 -256 -288 0
114 -115 118 0
114 115 -118 0
-114 115 118 0
-114 -115 -118 0
-115 -17 37 0
-115 17 116 0
115 17 -116 0
115 -17 -37 0
-116 -33 109 0
-116 33 117 0
116 33 -117 0
116 -33 -109 0
-117 292 -35 0
-117 293 35 0
117 -293 35 0
117 -292 -35 0
-118 -17 32 0
-118 17 119 0
118 17 -119 0
118 -17 -32 0
-119 -33 110 0
-119 33 120 0
119 33 -120 0
119 -33 -110 0
-120 260 -35 0
-120 261 35 0
120 -261 35 0
120 -260 -35 0
-121 17 77 0
-121 -17 33 122 0
121 17 -77 0
121 -17 -122 0
121 -17 -33 0
-122 256 35 0
122 -256 0
122 -35 0
-123 17 101 0
-123 -17 33 124 0
123 17 -101 0
123 -17 -124 0
123 -17 -33 0
-124 288 35 0
124 -288 0
124 -35 0
-125 126 127 0
125 -126 0
125 -127 0
126 17 33 -111 0
-126 -17 0
-126 -33 0
-126 111 0
127 17 -128 0
127 -17 -107 0
-127 -17 107 0
-127 17 128 0
-128 33 129 0
-128 -33 132 0
128 -33 -132 0
128 33 -129 0
-129 76 100 130 0
-129 -76 -100 130 0
129 -130 0
129 76 -100 0
129 -76 100 0
-130 -35 131 0
-130 -263 -295 35 0
-130 263 295 35 0
130 -35 -131 0
130 263 -295 35 0
130 -263 295 35 0
131 262 -294 0
131 -262 294 0
-131 -262 -294 0
-131 262 294 0
-132 -78 -102 117 120 0
-132 78 102 117 120 0
-132 -78 -102 -117 -120 0
-132 78 102 -117 -120 0
132 -78 102 0
132 78 -102 0
132 -117 120 0
132 117 -120 0
-133 -17 128 142 0
-133 17 134 142 0
133 -142 0
133 17 -134 0
133 -17 -128 0
-134 33 135 0
-134 -33 139 0
134 -33 -139 0
134 33 -135 0
-135 95 136 137 0
-135 -95 -136 137 0
135 -137 0
135 95 -136 0
135 -95 136 0
-136 265 -35 0
-136 266 35 0
136 -266 35 0
136 -265 -35 0
-137 -35 138 0
-137 -267 -299 35 0
-137 267 299 35 0
137 -35 -138 0
137 267 -299 35 0
137 -267 299 35 0
138 266 -298 0
138 -266 298 0
-138 -266 -298 0
-138 266 298 0
-139 75 99 140 0
-139 -75 -99 140 0
139 -140 0
139 75 -99 0
139 -75 99 0
-140 -35 141 0
-140 -265 -297 35 0
-140 265 297 35 0
140 -35 -141 0
140 265 -297 35 0
140 -265 297 35 0
141 264 -296 0
141 -264 296 0
-141 -264 -296 0
-141 264 296 0
-142 17 143 0
-142 -17 116 119 0
-142 -17 -116 -119 0
142 17 -143 0
142 -17 116 -119 0
142 -17 -116 119 0
-143 -33 130 0
-143 33 140 0
143 33 -140 0
143 -33 -130 0
-144 145 155 157 159 0
-144 145 155 -157 -159 0
144 -145 0
144 -157 159 0
144 -155 0
144 157 -159 0
145 17 -146 0
145 -17 -134 0
-145 -17 134 0
-145 17 146 0
-146 33 147 0
-146 -33 151 0
146 -33 -151 0
146 33 -147 0
-147 92 148 149 0
-147 -92 -148 149 0
147 -149 0
147 92 -148 0
147 -92 148 0
-148 269 -35 0
-148 270 35 0
148 -270 35 0
148 -269 -35 0
-149 -35 150 0
-149 -271 -303 35 0
-149 271 303 35 0
149 -35 -150 0
149 271 -303 35 0
149 -271 303 35 0
150 270 -302 0
150 -270 302 0
-150 -270 -302 0
-150 270 302 0
-151 94 152 153 0
-151 -94 -152 153 0
151 -153 0
151 94 -152 0
151 -94 152 0
-152 267 -35 0
-152 268 35 0
152 -268 35 0
152 -267 -35 0
-153 -35 154 0
-153 -269 -301 35 0
-153 269 301 35 0
153 -35 -154 0
153 269 -301 35 0
153 -269 301 35 0
154 268 -300 0
154 -268 300 0
-154 -268 -300 0
-154 268 300 0
-155 -17 143 0
-155 17 156 0
155 17 -156 0
155 -17 -143 0
-156 -33 137 0
-156 33 153 0
156 33 -153 0
156 -33 -137 0
-157 -17 74 0
-157 17 158 0
157 17 -158 0
157 -17 -74 0
-158 -33 136 0
-158 33 152 0
158 33 -152 0
158 -33 -136 0
-159 17 93 0
-159 -17 98 0
159 -17 -98 0
159 17 -93 0
160 -161 -190 0
160 18 -190 0
160 -170 -190 0
-160 190 0
-160 -18 161 170 0
-161 17 162 0
-161 -17 167 0
161 -17 -167 0
161 17 -162 0
-162 33 165 0
-162 -33 163 0
162 -33 -163 0
162 33 -165 0
163 -35 -164 0
163 275 -307 35 0
163 -275 307 35 0
-163 -35 164 0
-163 -275 -307 35 0
-163 275 307 35 0
164 274 -306 0
164 -274 306 0
-164 -274 -306 0
-164 274 306 0
165 -35 -166 0
165 277 -309 35 0
165 -277 309 35 0
-165 -35 166 0
-165 -277 -309 35 0
-165 277 309 35 0
166 276 -308 0
166 -276 308 0
-166 -276 -308 0
-166 276 308 0
-167 -33 149 0
-167 33 168 0
167 33 -168 0
167 -33 -149 0
168 -35 -169 0
168 273 -305 35 0
168 -273 305 35 0
-168 -35 169 0
-168 -273 -305 35 0
-168 273 305 35 0
169 272 -304 0
169 -272 304 0
-169 -272 -304 0
-169 272 304 0
-170 171 -184 -187 188 0
-170 171 184 187 188 0
170 -188 0
170 184 -187 0
170 -171 0
170 -184 187 0
-171 17 172 0
-171 -17 179 0
171 17 -172 0
171 -17 -179 0
-172 -33 165 175 0
-172 33 173 175 0
172 -175 0
172 -33 -165 0
172 33 -173 0
173 35 -174 0
173 278 -310 -35 0
173 -278 310 -35 0
-173 35 174 0
-173 -278 -310 -35 0
-173 278 310 -35 0
174 279 -311 0
174 -279 311 0
-174 -279 -311 0
-174 279 311 0
175 -33 -177 0
175 33 -88 176 0
175 33 88 -176 0
-175 -33 177 0
-175 33 88 176 0
-175 33 -88 -176 0
-176 277 -35 0
-176 278 35 0
176 -278 35 0
176 -277 -35 0
177 -84 178 0
177 84 -178 0
-177 84 178 0
-177 -84 -178 0
-178 275 -35 0
-178 276 35 0
178 -276 35 0
178 -275 -35 0
179 -33 -168 0
179 33 -180 0
179 -33 -182 0
-179 33 180 0
-179 -33 168 182 0
-180 85 163 181 0
-180 -85 163 -181 0
180 -163 0
180 85 -181 0
180 -85 181 0
-181 273 -35 0
-181 274 35 0
181 -274 35 0
181 -273 -35 0
182 -91 183 0
182 91 -183 0
-182 91 183 0
-182 -91 -183 0
-183 271 -35 0
-183 272 35 0
183 -272 35 0
183 -271 -35 0
-184 17 185 0
-184 -17 186 0
184 -17 -186 0
184 17 -185 0
-185 33 178 0
-185 -33 181 0
185 -33 -181 0
185 33 -178 0
-186 -33 148 0
-186 33 183 0
186 33 -183 0
186 -33 -148 0
-187 17 83 0
-187 -17 90 0
187 -17 -90 0
187 17 -83 0
-188 -17 156 189 0
-188 17 167 189 0
188 -189 0
188 17 -167 0
188 -17 -156 0
189 17 -179 0
189 -17 -146 0
-189 -17 146 0
-189 17 179 0
-190 -33 191 198 0
-190 33 193 198 0
190 -198 0
190 33 -193 0
190 -33 -191 0
-191 87 173 192 0
-191 -87 173 -192 0
191 -173 0
191 87 -192 0
191 -87 192 0
-192 279 -35 0
-192 280 35 0
192 -280 35 0
192 -279 -35 0
-193 -35 194 0
-193 -283 -315 194 0
-193 283 315 194 0
193 -194 0
193 283 -315 35 0
193 -283 315 35 0
-194 35 195 0
-194 282 314 195 0
-194 -282 -314 195 0
194 -195 0
194 282 -314 -35 0
194 -282 314 -35 0
195 -196 197 0
195 196 -197 0
-195 196 197 0
-195 -196 -197 0
-196 281 -35 0
-196 282 35 0
196 -282 35 0
196 -281 -35 0
-197 313 -35 0
-197 314 35 0
197 -314 35 0
197 -313 -35 0
-198 -17 199 205 0
-198 17 199 202 0
198 -199 0
198 17 -202 0
198 -17 -205 0
-199 18 -200 -201 0
-199 18 200 201 0
199 -18 0
199 200 -201 0
199 -200 201 0
-200 280 -35 0
-200 281 35 0
200 -281 35 0
200 -280 -35 0
-201 312 -35 0
-201 313 35 0
201 -313 35 0
201 -312 -35 0
-202 203 204 0
-202 33 35 204 0
202 -204 0
202 -33 -203 0
202 -35 -203 0
-203 -283 -315 0
-203 283 315 0
203 283 -315 0
203 -283 315 0
-204 -284 -316 194 0
-204 284 316 33 0
-204 284 316 194 0
-204 -284 -316 33 0
204 284 -316 0
204 -284 316 0
204 -33 -194 0
-205 86 162 172 206 0
-205 -86 162 172 -206 0
205 -162 0
205 -86 206 0
205 -172 0
205 86 -206 0
-206 -33 176 0
-206 33 192 0
206 33 -192 0
206 -33 -176 0
-207 -208 -213 216 221 0
-207 208 213 216 221 0
207 -221 0
207 208 -213 0
207 -216 0
207 -208 213 0
-208 31 44 210 0
-208 44 209 210 0
208 -210 0
208 -44 0
208 -31 -209 0
-209 18 121 0
209 -18 0
209 -121 0
-210 21 61 211 212 0
210 -212 0
210 -21 0
210 -211 0
210 -61 0
-211 25 42 0
211 -25 0
211 -42 0
-212 40 48 0
212 -40 0
212 -48 0
-213 -31 64 215 0
-213 31 64 214 0
213 -64 0
213 31 -214 0
213 -31 -215 0
214 18 -187 0
214 -18 -159 0
-214 -18 159 0
-214 18 187 0
-215 18 123 0
215 -18 0
215 -123 0
-216 217 220 0
-216 -41 217 0
-216 -212 217 0
216 -217 0
216 41 212 -220 0
217 -218 219 0
-217 218 0
-217 -219 0
218 18 -127 0
-218 -18 0
-218 127 0
-219 39 48 0
219 -39 0
219 -48 0
220 16 -108 0
-220 -16 0
-220 108 0
221 -104 219 0
221 -72 96 219 0
221 72 -96 219 0
-221 -219 0
-221 -72 -96 104 0
-221 72 96 104 0
-222 -48 247 250 0
-222 223 247 250 0
222 -250 0
222 -247 0
222 48 -223 0
-223 -69 224 0
-223 64 80 224 0
223 -224 0
223 69 -80 0
223 -64 69 0
-224 -225 233 0
-224 -228 -230 233 0
-224 228 230 233 0
224 -233 0
224 225 228 -230 0
224 225 -228 230 0
-225 61 226 227 0
225 -61 0
225 -226 0
225 -227 0
-226 42 52 0
226 -42 0
226 -52 0
-227 40 43 0
227 -40 0
227 -43 0
228 31 -229 0
228 -31 -54 0
-228 -31 54 0
-228 31 229 0
229 -18 -97 0
229 18 -89 0
-229 18 89 0
-229 -18 97 0
-230 -31 56 231 0
-230 31 231 232 0
230 -231 0
230 31 -232 0
230 -31 -56 0
231 -18 -73 0
-231 18 0
-231 73 0
232 -17 18 -158 0
232 17 18 -186 0
-232 -18 0
-232 17 186 0
-232 -17 158 0
-233 234 -243 -245 246 0
-233 234 243 245 246 0
233 -246 0
233 243 -245 0
233 -234 0
233 -243 245 0
234 40 -235 0
234 40 41 -242 0
-234 -40 0
-234 235 242 0
-234 -41 235 0
235 -236 237 0
-235 236 0
-235 -237 0
-236 18 39 115 0
236 -18 0
236 -39 0
236 -115 0
-237 43 118 238 241 0
237 -241 0
237 -43 0
237 -238 0
237 -118 0
-238 8 239 53 240 0
238 -240 0
238 -8 0
238 -53 0
238 -239 0
-239 270 302 0
239 -270 0
239 -302 0
-240 20 46 0
240 -20 0
240 -46 0
-241 269 301 18 42 0
241 -269 0
241 -42 0
241 -18 0
241 -301 0
242 16 -112 0
-242 -16 0
-242 112 0
-243 8 209 227 244 0
243 -244 0
243 -8 0
243 -227 0
243 -209 0
-244 226 240 0
244 -226 0
244 -240 0
-245 39 215 0
245 -39 0
245 -215 0
246 -40 236 0
246 236 -237 0
-246 -236 0
-246 40 237 0
247 -31 64 -249 0
247 31 64 -248 0
-247 -64 0
-247 -31 249 0
-247 31 248 0
248 18 -188 0
248 -18 -133 0
-248 -18 133 0
-248 18 188 0
-249 -18 220 242 0
-249 126 220 242 0
249 -242 0
249 -220 0
249 18 -126 0
-250 251 254 0
-250 -31 251 253 0
250 -251 0
250 31 -254 0
250 -253 -254 0
251 31 64 -252 0
251 -31 64 -218 0
-251 -64 0
-251 31 252 0
-251 -31 218 0
252 -18 -145 0
252 18 -171 0
-252 18 171 0
-252 -18 145 0
253 18 -114 0
-253 -18 0
-253 114 0
254 -31 255 0
254 -18 255 0
254 -161 255 0
-254 -255 0
-254 18 31 161 0
-255 18 64 0
-255 64 -155 0
255 -64 0
255 -18 155 0
-320 0
2 0

